 $CONTRL SCFTYP=UHF RUNTYP=OPTIMIZE EXETYP=RUN MPLEVL=2 MAXIT=200 MULT=2
 ISPHER=1 COORD=UNIQUE NOSYM=1 UNITS=ANGS PP=READ $END
 $GUESS GUESS=HUCKEL $END
 $SYSTEM MWORDS=40 MEMDDI=20  $END
 $SCF DIRSCF=.FALSE. $END
 $DATA
 titulo
C1
EndOfGamessHeader
