 $CONTRL SCFTYP=RHF RUNTYP=HESSIAN EXETYP=RUN DFTTYP=PBE MAXIT=200
 ISPHER=+1 COORD=UNIQUE NOSYM=1 UNITS=ANGS MULT=1 $END
 $GUESS GUESS=HUCKEL $END
 $SYSTEM MWORDS=1000 MEMDDI=0 PARALL=.TRUE. $END
 $DFT NRAD=125 $END
 $SCF DIRSCF=.TRUE. $END
 $FORCE METHOD=ANALYTIC VIBSIZ=0.010000 VIBANL=.TRUE. $END
 $DATA
 titulo
C1
EndOfGamessHeader
