 $CONTRL SCFTYP=RHF RUNTYP=OPTIMIZE EXETYP=RUN DFTTYP=PBE MAXIT=200
 ISPHER=+1 COORD=UNIQUE NOSYM=1 UNITS=ANGS MULT=1 $END
 $GUESS GUESS=HUCKEL $END
 $SYSTEM MWORDS=1000 MEMDDI=0 PARALL=.TRUE. $END
 $SCF DIRSCF=.FALSE. $END
 $STATPT NSTEP=1 $END
 $DATA
 titulo
C1
EndOfGamessHeader
